FourierSAT_Github_AIJ/benchmarks/MAXSAT_benchmarks/random/1/dimacs-mod/p_hat700-1.clq.cnf
c File  p_hat700-1.clq                
c
c Source: P. Soriano and M. Gendreau at  patrick@crt.umontreal.ca
c
c Reference: p-hat graphs are generated with the p-hat generator
c 	      which is a generalization of the classical uniform
c 	      random graph generator.
c 	      Graphs generated with p-hat have wider node degree spread
c 	      and larger cliques than uniform graphs.
c
c NOTE: September 23, 1993 Corrected corrupted file at DIMACS.
c
c
c Generation parameters: 
c 	n =    700 a =  0.00  b =  0.50  Expected density =  0.25
c	Seed =      16313       Real density =  0.249
c
p cnf 42 418
1 4 0
-1 -4 0
1 5 0
-1 -5 0
1 13 0
-1 -13 0
1 19 0
-1 -19 0
1 20 0
-1 -20 0
1 22 0
-1 -22 0
1 27 0
-1 -27 0
1 31 0
-1 -31 0
1 32 0
-1 -32 0
1 34 0
-1 -34 0
1 35 0
-1 -35 0
1 39 0
-1 -39 0
2 23 0
-2 -23 0
2 28 0
-2 -28 0
2 32 0
-2 -32 0
2 35 0
-2 -35 0
3 4 0
-3 -4 0
3 10 0
-3 -10 0
3 21 0
-3 -21 0
3 25 0
-3 -25 0
3 29 0
-3 -29 0
3 31 0
-3 -31 0
4 7 0
-4 -7 0
4 9 0
-4 -9 0
4 10 0
-4 -10 0
4 14 0
-4 -14 0
4 16 0
-4 -16 0
4 20 0
-4 -20 0
4 24 0
-4 -24 0
4 26 0
-4 -26 0
4 28 0
-4 -28 0
4 29 0
-4 -29 0
4 30 0
-4 -30 0
4 35 0
-4 -35 0
4 40 0
-4 -40 0
5 7 0
-5 -7 0
5 10 0
-5 -10 0
5 14 0
-5 -14 0
5 16 0
-5 -16 0
5 18 0
-5 -18 0
5 21 0
-5 -21 0
5 24 0
-5 -24 0
5 26 0
-5 -26 0
5 27 0
-5 -27 0
5 29 0
-5 -29 0
5 30 0
-5 -30 0
5 31 0
-5 -31 0
5 35 0
-5 -35 0
5 36 0
-5 -36 0
5 39 0
-5 -39 0
5 40 0
-5 -40 0
5 42 0
-5 -42 0
6 7 0
-6 -7 0
6 16 0
-6 -16 0
6 18 0
-6 -18 0
6 24 0
-6 -24 0
6 25 0
-6 -25 0
6 28 0
-6 -28 0
6 34 0
-6 -34 0
6 35 0
-6 -35 0
6 39 0
-6 -39 0
6 40 0
-6 -40 0
7 10 0
-7 -10 0
7 14 0
-7 -14 0
7 16 0
-7 -16 0
7 24 0
-7 -24 0
7 27 0
-7 -27 0
7 32 0
-7 -32 0
7 42 0
-7 -42 0
8 12 0
-8 -12 0
8 14 0
-8 -14 0
8 20 0
-8 -20 0
8 28 0
-8 -28 0
8 31 0
-8 -31 0
8 41 0
-8 -41 0
9 14 0
-9 -14 0
9 32 0
-9 -32 0
9 42 0
-9 -42 0
10 15 0
-10 -15 0
10 31 0
-10 -31 0
10 34 0
-10 -34 0
10 37 0
-10 -37 0
11 16 0
-11 -16 0
11 23 0
-11 -23 0
11 24 0
-11 -24 0
11 25 0
-11 -25 0
11 28 0
-11 -28 0
11 29 0
-11 -29 0
11 34 0
-11 -34 0
11 35 0
-11 -35 0
11 42 0
-11 -42 0
12 16 0
-12 -16 0
12 18 0
-12 -18 0
12 28 0
-12 -28 0
12 32 0
-12 -32 0
12 33 0
-12 -33 0
12 34 0
-12 -34 0
12 36 0
-12 -36 0
12 37 0
-12 -37 0
12 38 0
-12 -38 0
12 41 0
-12 -41 0
13 16 0
-13 -16 0
13 18 0
-13 -18 0
13 32 0
-13 -32 0
14 15 0
-14 -15 0
14 20 0
-14 -20 0
14 21 0
-14 -21 0
14 24 0
-14 -24 0
14 33 0
-14 -33 0
14 34 0
-14 -34 0
14 35 0
-14 -35 0
14 40 0
-14 -40 0
15 17 0
-15 -17 0
15 18 0
-15 -18 0
15 20 0
-15 -20 0
15 22 0
-15 -22 0
15 24 0
-15 -24 0
15 26 0
-15 -26 0
15 30 0
-15 -30 0
15 32 0
-15 -32 0
15 33 0
-15 -33 0
15 37 0
-15 -37 0
15 41 0
-15 -41 0
16 19 0
-16 -19 0
16 20 0
-16 -20 0
16 23 0
-16 -23 0
16 24 0
-16 -24 0
16 27 0
-16 -27 0
16 32 0
-16 -32 0
16 35 0
-16 -35 0
16 37 0
-16 -37 0
16 38 0
-16 -38 0
16 42 0
-16 -42 0
17 18 0
-17 -18 0
17 21 0
-17 -21 0
17 22 0
-17 -22 0
17 32 0
-17 -32 0
17 34 0
-17 -34 0
17 36 0
-17 -36 0
17 41 0
-17 -41 0
18 20 0
-18 -20 0
18 21 0
-18 -21 0
18 23 0
-18 -23 0
18 24 0
-18 -24 0
18 31 0
-18 -31 0
18 39 0
-18 -39 0
18 42 0
-18 -42 0
19 21 0
-19 -21 0
19 22 0
-19 -22 0
19 23 0
-19 -23 0
19 25 0
-19 -25 0
19 31 0
-19 -31 0
19 32 0
-19 -32 0
19 35 0
-19 -35 0
19 39 0
-19 -39 0
19 40 0
-19 -40 0
20 22 0
-20 -22 0
20 23 0
-20 -23 0
20 24 0
-20 -24 0
20 28 0
-20 -28 0
20 29 0
-20 -29 0
20 40 0
-20 -40 0
20 41 0
-20 -41 0
21 22 0
-21 -22 0
21 24 0
-21 -24 0
21 40 0
-21 -40 0
21 41 0
-21 -41 0
22 24 0
-22 -24 0
22 34 0
-22 -34 0
22 38 0
-22 -38 0
22 40 0
-22 -40 0
22 41 0
-22 -41 0
22 42 0
-22 -42 0
23 24 0
-23 -24 0
23 25 0
-23 -25 0
23 29 0
-23 -29 0
23 36 0
-23 -36 0
24 28 0
-24 -28 0
24 32 0
-24 -32 0
24 36 0
-24 -36 0
24 42 0
-24 -42 0
25 32 0
-25 -32 0
26 29 0
-26 -29 0
26 35 0
-26 -35 0
26 42 0
-26 -42 0
27 29 0
-27 -29 0
27 32 0
-27 -32 0
28 30 0
-28 -30 0
28 34 0
-28 -34 0
28 35 0
-28 -35 0
28 36 0
-28 -36 0
28 42 0
-28 -42 0
29 35 0
-29 -35 0
29 39 0
-29 -39 0
30 39 0
-30 -39 0
31 32 0
-31 -32 0
31 34 0
-31 -34 0
32 33 0
-32 -33 0
32 37 0
-32 -37 0
32 39 0
-32 -39 0
33 40 0
-33 -40 0
34 40 0
-34 -40 0
34 41 0
-34 -41 0
35 37 0
-35 -37 0
35 38 0
-35 -38 0
35 39 0
-35 -39 0
36 38 0
-36 -38 0
39 41 0
-39 -41 0
41 42 0
-41 -42 0
