FourierSAT_Github_AIJ/res/fs_1core/p_hat700-1.clq.cnf.txt
o 70
o 68
